(set-logic ALL)
(set-option :produce-models true)
(define-fun-rec toLower ((x String) (y String)) Bool 	(or (and (= x "") (= y "")) 		(and (not (= x "")) (not (= y "")) 			(let ((x_head (str.at x 0)) 				(y_head (str.at y 0)) 				(x_tail (str.substr x 1 (- (str.len x) 1))) 				(y_tail (str.substr y 1 (- (str.len y) 1)))) 			(and (= (str.to_code y_head) 				(ite (and (<= 65 (str.to_code x_head)) (<= (str.to_code x_head) 90)) 					(+ (str.to_code x_head) 32) 					(str.to_code x_head))) 				(toLower x_tail y_tail))))))
(declare-fun sym205 () String)
(declare-fun sym328 () String)
(declare-fun sym605 () String)
(declare-fun sym649 () String)
(declare-fun sym409 () String)
(declare-fun sym729 () String)
(declare-fun sym363 () String)
(declare-fun sym683 () String)
(declare-fun sym289 () String)
(declare-fun sym443 () String)
(declare-fun sym489 () String)
(declare-fun sym567 () String)
(declare-fun sym160 () String)
(declare-fun sym338 () String)
(declare-fun sym659 () String)
(declare-fun sym615 () String)
(declare-fun sym739 () String)
(declare-fun sym373 () String)
(declare-fun sym175 () String)
(declare-fun sym693 () String)
(declare-fun sym254 () String)
(declare-fun sym453 () String)
(declare-fun sym299 () String)
(declare-fun sym135 () String)
(declare-fun sym773 () String)
(declare-fun sym499 () String)
(declare-fun sym533 () String)
(declare-fun sym215 () String)
(declare-fun sym20 () String)
(declare-fun sym625 () String)
(declare-fun sym703 () String)
(declare-fun sym749 () String)
(declare-fun sym509 () String)
(declare-fun sym264 () String)
(declare-fun sym463 () String)
(declare-fun sym783 () String)
(declare-fun sym389 () String)
(declare-fun sym543 () String)
(declare-fun sym423 () String)
(declare-fun sym225 () String)
(declare-fun sym185 () String)
(declare-fun sym581 () String)
(declare-fun sym719 () String)
(declare-fun sym239 () String)
(declare-fun sym759 () String)
(declare-fun sym639 () String)
(declare-fun sym519 () String)
(declare-fun sym793 () String)
(declare-fun sym353 () String)
(declare-fun sym673 () String)
(declare-fun sym113 () String)
(declare-fun sym399 () String)
(declare-fun sym553 () String)
(declare-fun sym433 () String)
(declare-fun sym279 () String)
(declare-fun sym313 () String)
(declare-fun sym479 () String)
(declare-fun sym150 () String)
(declare-fun sym195 () String)
(declare-fun sym591 () String)
(define-fun Alphabet () RegLan 
	(re.* (re.union (str.to_re "A") (str.to_re "B") (str.to_re "C") (str.to_re "D") (str.to_re "E") (str.to_re "F") (str.to_re "G") (str.to_re "H") (str.to_re "I") (str.to_re "J") (str.to_re "K") (str.to_re "L") (str.to_re "M") (str.to_re "N") (str.to_re "O") (str.to_re "P") (str.to_re "Q") (str.to_re "R") (str.to_re "S") (str.to_re "T") (str.to_re "U") (str.to_re "V") (str.to_re "W") (str.to_re "X") (str.to_re "Y") (str.to_re "Z") (str.to_re "a") (str.to_re "b") (str.to_re "c") (str.to_re "d") (str.to_re "e") (str.to_re "f") (str.to_re "g") (str.to_re "h") (str.to_re "i") (str.to_re "j") (str.to_re "k") (str.to_re "l") (str.to_re "m") (str.to_re "n") (str.to_re "o") (str.to_re "p") (str.to_re "q") (str.to_re "r") (str.to_re "s") (str.to_re "t") (str.to_re "u") (str.to_re "v") (str.to_re "w") (str.to_re "x") (str.to_re "y") (str.to_re "z") ))
)
(declare-fun L80  () String)
(assert (toLower sym773  L80 ))
(declare-fun L84  () String)
(assert (toLower sym499  L84 ))
(declare-fun L40  () String)
(assert (toLower sym533  L40 ))
(declare-fun L2  () String)
(assert (toLower sym463  L2 ))
(declare-fun L72  () String)
(assert (toLower sym625  L72 ))
(declare-fun L60  () String)
(assert (toLower sym693  L60 ))
(declare-fun L92  () String)
(assert (toLower sym509  L92 ))
(declare-fun L88  () String)
(assert (toLower sym749  L88 ))
(declare-fun L44  () String)
(assert (toLower sym739  L44 ))
(declare-fun L6  () String)
(assert (toLower sym373  L6 ))
(declare-fun L76  () String)
(assert (toLower sym175  L76 ))
(declare-fun L32  () String)
(assert (toLower sym185  L32 ))
(declare-fun L64  () String)
(assert (toLower sym254  L64 ))
(declare-fun L20  () String)
(assert (toLower sym215  L20 ))
(declare-fun L96  () String)
(assert (toLower sym703  L96 ))
(declare-fun L52  () String)
(assert (toLower sym683  L52 ))
(declare-fun L48  () String)
(assert (toLower sym581  L48 ))
(declare-fun L36  () String)
(assert (toLower sym567  L36 ))
(declare-fun L68  () String)
(assert (toLower sym225  L68 ))
(declare-fun L24  () String)
(assert (toLower sym659  L24 ))
(declare-fun L56  () String)
(assert (toLower sym423  L56 ))
(declare-fun L12  () String)
(assert (toLower sym673  L12 ))
(declare-fun L28  () String)
(assert (toLower sym195  L28 ))
(declare-fun L16  () String)
(assert (toLower sym299  L16 ))
(declare-fun L112  () String)
(assert (toLower sym409  L112 ))
(declare-fun L100  () String)
(assert (toLower sym759  L100 ))
(declare-fun L1  () String)
(assert (toLower "length"  L1 ))
(declare-fun L108  () String)
(assert (toLower sym20  L108 ))
(declare-fun L5  () String)
(assert (toLower "database"  L5 ))
(declare-fun L116  () String)
(assert (toLower sym649  L116 ))
(declare-fun L104  () String)
(assert (toLower sym353  L104 ))
(declare-fun L9  () String)
(assert (toLower "description"  L9 ))
(declare-fun L13  () String)
(assert (toLower "name"  L13 ))
(declare-fun L29  () String)
(assert (toLower "table"  L29 ))
(declare-fun L17  () String)
(assert (toLower "field"  L17 ))
(declare-fun L90  () String)
(assert (toLower sym443  L90 ))
(declare-fun L0  () String)
(assert (toLower sym453  L0 ))
(declare-fun L62  () String)
(assert (toLower sym433  L62 ))
(declare-fun L94  () String)
(assert (toLower sym389  L94 ))
(declare-fun L50  () String)
(assert (toLower sym160  L50 ))
(declare-fun L82  () String)
(assert (toLower sym279  L82 ))
(declare-fun L4  () String)
(assert (toLower sym113  L4 ))
(declare-fun L70  () String)
(assert (toLower sym489  L70 ))
(declare-fun L66  () String)
(assert (toLower sym289  L66 ))
(declare-fun L22  () String)
(assert (toLower sym719  L22 ))
(declare-fun L98  () String)
(assert (toLower sym313  L98 ))
(declare-fun L54  () String)
(assert (toLower sym553  L54 ))
(declare-fun L10  () String)
(assert (toLower sym363  L10 ))
(declare-fun L86  () String)
(assert (toLower sym605  L86 ))
(declare-fun L42  () String)
(assert (toLower sym615  L42 ))
(declare-fun L8  () String)
(assert (toLower sym783  L8 ))
(declare-fun L74  () String)
(assert (toLower sym338  L74 ))
(declare-fun L30  () String)
(assert (toLower sym519  L30 ))
(declare-fun L26  () String)
(assert (toLower sym135  L26 ))
(declare-fun L58  () String)
(assert (toLower sym639  L58 ))
(declare-fun L14  () String)
(assert (toLower sym205  L14 ))
(declare-fun L46  () String)
(assert (toLower sym399  L46 ))
(declare-fun L78  () String)
(assert (toLower sym328  L78 ))
(declare-fun L34  () String)
(assert (toLower sym150  L34 ))
(declare-fun L18  () String)
(assert (toLower sym793  L18 ))
(declare-fun L38  () String)
(assert (toLower sym239  L38 ))
(declare-fun L114  () String)
(assert (toLower sym479  L114 ))
(declare-fun L102  () String)
(assert (toLower sym264  L102 ))
(declare-fun L110  () String)
(assert (toLower sym729  L110 ))
(declare-fun L3  () String)
(assert (toLower "option"  L3 ))
(declare-fun L7  () String)
(assert (toLower "type"  L7 ))
(declare-fun L118  () String)
(assert (toLower sym591  L118 ))
(declare-fun L106  () String)
(assert (toLower sym543  L106 ))

(assert (str.in_re sym591 Alphabet))
(assert (str.in_re sym195 Alphabet))
(assert (str.in_re sym150 Alphabet))
(assert (str.in_re sym479 Alphabet))
(assert (str.in_re sym313 Alphabet))
(assert (str.in_re sym279 Alphabet))
(assert (str.in_re sym433 Alphabet))
(assert (str.in_re sym553 Alphabet))
(assert (str.in_re sym399 Alphabet))
(assert (str.in_re sym113 Alphabet))
(assert (str.in_re sym673 Alphabet))
(assert (str.in_re sym353 Alphabet))
(assert (str.in_re sym793 Alphabet))
(assert (str.in_re sym519 Alphabet))
(assert (str.in_re sym639 Alphabet))
(assert (str.in_re sym759 Alphabet))
(assert (str.in_re sym239 Alphabet))
(assert (str.in_re sym719 Alphabet))
(assert (str.in_re sym581 Alphabet))
(assert (str.in_re sym185 Alphabet))
(assert (str.in_re sym225 Alphabet))
(assert (str.in_re sym423 Alphabet))
(assert (str.in_re sym543 Alphabet))
(assert (str.in_re sym389 Alphabet))
(assert (str.in_re sym783 Alphabet))
(assert (str.in_re sym463 Alphabet))
(assert (str.in_re sym264 Alphabet))
(assert (str.in_re sym509 Alphabet))
(assert (str.in_re sym749 Alphabet))
(assert (str.in_re sym703 Alphabet))
(assert (str.in_re sym625 Alphabet))
(assert (str.in_re sym20 Alphabet))
(assert (str.in_re sym215 Alphabet))
(assert (str.in_re sym533 Alphabet))
(assert (str.in_re sym499 Alphabet))
(assert (str.in_re sym773 Alphabet))
(assert (str.in_re sym135 Alphabet))
(assert (str.in_re sym299 Alphabet))
(assert (str.in_re sym453 Alphabet))
(assert (str.in_re sym254 Alphabet))
(assert (str.in_re sym693 Alphabet))
(assert (str.in_re sym175 Alphabet))
(assert (str.in_re sym373 Alphabet))
(assert (str.in_re sym739 Alphabet))
(assert (str.in_re sym615 Alphabet))
(assert (str.in_re sym659 Alphabet))
(assert (str.in_re sym338 Alphabet))
(assert (str.in_re sym160 Alphabet))
(assert (str.in_re sym567 Alphabet))
(assert (str.in_re sym489 Alphabet))
(assert (str.in_re sym443 Alphabet))
(assert (str.in_re sym289 Alphabet))
(assert (str.in_re sym683 Alphabet))
(assert (str.in_re sym363 Alphabet))
(assert (str.in_re sym729 Alphabet))
(assert (str.in_re sym409 Alphabet))
(assert (str.in_re sym649 Alphabet))
(assert (str.in_re sym605 Alphabet))
(assert (str.in_re sym328 Alphabet))
(assert (str.in_re sym205 Alphabet))
(assert (not (= L0 L1 )))
(assert (= L2 L3 ))
(assert (= L4 L5 ))
(assert (= L6 L7 ))
(assert (not (= L8 L9 )))
(assert (not (= L10 L9 )))
(assert (not (= L12 L13 )))
(assert (not (= L14 L13 )))
(assert (= L16 L17 ))
(assert (not (= L18 L17 )))
(assert (not (= L20 L9 )))
(assert (not (= L22 L13 )))
(assert (= L24 L7 ))
(assert (= L26 L13 ))
(assert (not (= L28 L29 )))
(assert (= L30 L3 ))
(assert (not (= L32 L9 )))
(assert (not (= L34 L13 )))
(assert (= L36 L13 ))
(assert (= L38 L13 ))
(assert (not (= L40 L13 )))
(assert (not (= L42 L9 )))
(assert (not (= L44 L7 )))
(assert (not (= L46 L9 )))
(assert (not (= L48 L13 )))
(assert (= L50 L9 ))
(assert (not (= L52 L9 )))
(assert (= L54 L17 ))
(assert (not (= L56 L13 )))
(assert (not (= L58 L13 )))
(assert (not (= L60 L7 )))
(assert (not (= L62 L9 )))
(assert (not (= L64 L13 )))
(assert (not (= L66 L9 )))
(assert (= L68 L29 ))
(assert (not (= L70 L9 )))
(assert (= L72 L7 ))
(assert (= L74 L9 ))
(assert (not (= L76 L13 )))
(assert (not (= L78 L13 )))
(assert (not (= L80 L13 )))
(assert (not (= L82 L13 )))
(assert (not (= L84 L7 )))
(assert (not (= L86 L13 )))
(assert (not (= L88 L1 )))
(assert (not (= L90 L7 )))
(assert (not (= L92 L1 )))
(assert (not (= L94 L13 )))
(assert (= L96 L1 ))
(assert (= L98 L13 ))
(assert (= L100 L3 ))
(assert (= L102 L9 ))
(assert (not (= L104 L13 )))
(assert (not (= L106 L9 )))
(assert (= L108 "html" ))
(assert (not (= L108 "sql" )))
(assert (not (= L110 L9 )))
(assert (= L112 L7 ))
(assert (not (= L114 L13 )))
(assert (not (= L116 L9 )))
(assert (= L118 L9 ))
(check-sat)
(get-model)
(exit)
